Calculando min-max:
Maximos: {'E': 7.6198000000000015, 'C': 73.0, 'M': 0.0}
Minimos: {'E': 0.611782, 'C': 0.0, 'M': 0.0}
Resolvendo instancia...

Welcome to IBM(R) ILOG(R) CPLEX(R) Interactive Optimizer 22.1.0.0
  with Simplex, Mixed Integer & Barrier Optimizers
5725-A06 5725-A29 5724-Y48 5724-Y49 5724-Y54 5724-Y55 5655-Y21
Copyright IBM Corp. 1988, 2022.  All Rights Reserved.

Type 'help' for a list of available commands.
Type 'help' followed by a command name for more
information on commands.

CPLEX> Logfile 'cplex.log' closed.
Logfile 'C:\Users\LUCASP~1\AppData\Local\Temp\tmpuwya805a.cplex.log' open.
CPLEX> Problem 'C:\Users\LUCASP~1\AppData\Local\Temp\tmp46j8uet1.pyomo.lp' read.
Read time = 0.38 sec. (0.82 ticks)
CPLEX> Problem name         : C:\Users\LUCASP~1\AppData\Local\Temp\tmp46j8uet1.pyomo.lp
Objective sense      : Minimize
Variables            :    5232  [Nneg: 1,  Binary: 5220,  General Integer: 11]
Objective nonzeros   :     100
Linear constraints   :    8245  [Less: 5021,  Greater: 1,  Equal: 3223]
  Nonzeros           :   20786
  RHS nonzeros       :    1593

Variables            : Min LB: 0.000000         Max UB: 1.000000       
Objective nonzeros   : Min   : 0.01369863       Max   : 0.01369863     
Linear constraints   :
  Nonzeros           : Min   : 1.000000         Max   : 100000.0       
  RHS nonzeros       : Min   : 1.000000         Max   : 10.00000       
CPLEX> Version identifier: 22.1.0.0 | 2022-03-09 | 1a383f8ce
Tried aggregator 3 times.
MIP Presolve eliminated 5105 rows and 3619 columns.
MIP Presolve modified 369 coefficients.
Aggregator did 172 substitutions.
Reduced MIP has 2968 rows, 1441 columns, and 7950 nonzeros.
Reduced MIP has 1431 binaries, 10 generals, 0 SOSs, and 0 indicators.
Presolve time = 0.17 sec. (23.58 ticks)
Found incumbent of value 0.000000 after 0.36 sec. (38.60 ticks)
Probing time = 0.02 sec. (3.41 ticks)
Tried aggregator 1 time.
Detecting symmetries...
Reduced MIP has 2968 rows, 1441 columns, and 7950 nonzeros.
Reduced MIP has 1431 binaries, 10 generals, 0 SOSs, and 0 indicators.
Presolve time = 0.16 sec. (22.70 ticks)
Probing time = 0.02 sec. (3.38 ticks)
Clique table members: 5399.
MIP emphasis: balance optimality and feasibility.
MIP search method: dynamic search.
Parallel mode: deterministic, using up to 4 threads.
Root relaxation solution time = 0.09 sec. (16.18 ticks)

        Nodes                                         Cuts/
   Node  Left     Objective  IInf  Best Integer    Best Bound    ItCnt     Gap

*     0+    0                            0.0000       -1.0000              --- 
*     0+    0                           -0.3014       -1.0000           231.82%
      0     0       -1.0000   206       -0.3014       -1.0000      479  231.82%
      0     0       -1.0000   100       -0.3014      Cuts: 33      657  231.82%
      0     0       -1.0000   313       -0.3014      Cuts: 96      899  231.82%
*     0+    0                           -0.3288       -1.0000           204.17%
*     0+    0                           -1.0000       -1.0000             0.00%
      0     0        cutoff             -1.0000       -1.0000      899    0.00%
Elapsed time = 1.31 sec. (276.33 ticks, tree = 0.01 MB, solutions = 4)

Implied bound cuts applied:  10

Root node processing (before b&c):
  Real time             =    1.33 sec. (276.61 ticks)
Parallel b&c, 4 threads:
  Real time             =    0.00 sec. (0.00 ticks)
  Sync time (average)   =    0.00 sec.
  Wait time (average)   =    0.00 sec.
                          ------------
Total (root+branch&cut) =    1.33 sec. (276.61 ticks)

Solution pool: 4 solutions saved.

MIP - Integer optimal solution:  Objective = -1.0000000000e+00
Solution time =    1.44 sec.  Iterations = 899  Nodes = 0
Deterministic time = 276.62 ticks  (192.50 ticks/sec)

CPLEX> Incumbent solution written to file 'C:\Users\LUCASP~1\AppData\Local\Temp\tmp7vezqz_7.cplex.sol'.
CPLEX> 
Resultados:

E: 0.6685975977801426 -- 5.297326 mA
C: 1.0 -- 73.0 points
WEIGHTED: -1.0
Solving time: 1.44 s
Total Pyomo time: 3.0094690322875977 s
Total elapsed time since execution: 7.189549207687378
